(declare-fun var0 () String)
(declare-fun var1 () String)
(declare-fun var2 () String)
(declare-fun var3 () String)
(declare-fun var4 () String)
(declare-fun var5 () String)
(declare-fun var6 () String)
(declare-fun var7 () String)
(declare-fun var8 () String)
(declare-fun var9 () String)
(declare-fun var10 () String)
(declare-fun var11 () String)
(declare-fun var12 () String)
(declare-fun var13 () String)
(declare-fun var14 () String)
(declare-fun var15 () String)
(declare-fun var16 () String)
(declare-fun var17 () String)
(declare-fun var18 () String)
(declare-fun var19 () String)
(declare-fun var20 () String)
(declare-fun var21 () String)
(declare-fun var22 () String)
(declare-fun var23 () String)
(declare-fun var24 () String)
(declare-fun var25 () String)
(declare-fun var26 () String)
(declare-fun var27 () String)
(declare-fun var28 () String)
(declare-fun var29 () String)
(declare-fun var30 () String)
(declare-fun var31 () String)
(declare-fun var32 () String)
(declare-fun var33 () String)
(declare-fun var34 () String)
(declare-fun var35 () String)
(declare-fun var36 () String)
(declare-fun var37 () String)
(declare-fun var38 () String)
(declare-fun var39 () String)
(declare-fun var40 () String)
(declare-fun var41 () String)
(declare-fun var42 () String)
(declare-fun var43 () String)
(declare-fun var44 () String)
(declare-fun var45 () String)
(declare-fun var46 () String)
(declare-fun var47 () String)
(declare-fun var48 () String)
(declare-fun var49 () String)
(declare-fun var50 () String)
(declare-fun var51 () String)
(declare-fun var52 () String)
(declare-fun var53 () String)
(declare-fun var54 () String)
(declare-fun var55 () String)
(declare-fun var56 () String)
(declare-fun var57 () String)
(declare-fun var58 () String)
(declare-fun var59 () String)
(declare-fun var60 () String)
(assert (= var0 (str.++ var1 var2)))
(assert (= var2 (str.++ var3 var4)))
(assert (= var4 (str.++ var5 var6)))
(assert (= var6 (str.++ var7 var8)))
(assert (= var8 (str.++ var9 var10)))
(assert (= var10 (str.++ var11 var12)))
(assert (= var12 (str.++ var13 var14)))
(assert (= var14 (str.++ var15 var16)))
(assert (= var16 (str.++ var17 var18)))
(assert (= var18 (str.++ var19 var20)))
(assert (= var20 (str.++ var21 var22)))
(assert (= var22 (str.++ var23 var24)))
(assert (= var24 (str.++ var25 var26)))
(assert (= var26 (str.++ var27 var28)))
(assert (= var28 (str.++ var29 var30)))
(assert (= var30 (str.++ var31 var32)))
(assert (= var32 (str.++ var33 var34)))
(assert (= var34 (str.++ var35 var36)))
(assert (= var36 (str.++ var37 var38)))
(assert (= var38 (str.++ var39 var40)))
(assert (= var40 (str.++ var41 var42)))
(assert (= var42 (str.++ var43 var44)))
(assert (= var44 (str.++ var45 var46)))
(assert (= var46 (str.++ var47 var48)))
(assert (= var48 (str.++ var49 var50)))
(assert (= var50 (str.++ var51 var52)))
(assert (= var52 (str.++ var53 var54)))
(assert (= var54 (str.++ var55 var56)))
(assert (= var56 (str.++ var57 var58)))
(assert (= var58 (str.++ var59 var60)))
(assert (= var0 "solution"))
(assert (= "*" (str.at var37 912)))
(assert (= "R" (str.at var38 617)))
(assert (= "e" (str.at var58 933)))
(assert (= "7" (str.at var2 92)))
(assert (= "q" (str.at var6 525)))
(assert (= "G" (str.at var56 125)))
(assert (= "9" (str.at var50 612)))
(assert (= "n" (str.at var29 262)))
(assert (= "$" (str.at var31 0)))
(assert (= ">" (str.at var46 975)))
(assert (= "M" (str.at var24 733)))
(assert (= "?" (str.at var18 388)))
(assert (= "9" (str.at var41 389)))
(assert (= "=" (str.at var41 988)))
(assert (= "%" (str.at var23 283)))
(assert (= "g" (str.at var26 508)))
(assert (= "." (str.at var21 124)))
(assert (= "G" (str.at var4 412)))
(assert (= "`" (str.at var55 318)))
(assert (= "i" (str.at var23 912)))
(assert (= "3" (str.at var49 600)))
(assert (= "v" (str.at var28 992)))
(assert (= "P" (str.at var52 994)))
(assert (= "o" (str.at var18 74)))
(assert (= "6" (str.at var57 378)))
(assert (= "5" (str.at var57 5)))
(assert (= "]" (str.at var48 283)))
(assert (= "\\" (str.at var21 234)))
(assert (= "3" (str.at var50 246)))
(assert (= "U" (str.at var34 173)))
(assert (= "5" (str.at var10 74)))
(assert (= "e" (str.at var20 705)))
(assert (= "T" (str.at var52 216)))
(assert (= "J" (str.at var28 103)))
(assert (= """" (str.at var56 845)))
(assert (= "I" (str.at var36 402)))
(assert (= "e" (str.at var22 355)))
(assert (= "S" (str.at var45 16)))
(assert (= "*" (str.at var29 710)))
(assert (= "b" (str.at var37 573)))
(assert (= ":" (str.at var1 58)))
(assert (= "k" (str.at var5 92)))
(assert (= "I" (str.at var21 733)))
(assert (= "9" (str.at var10 310)))
(assert (= "U" (str.at var27 150)))
(assert (= "]" (str.at var53 599)))
(assert (= "=" (str.at var20 268)))
(assert (= "j" (str.at var4 233)))
(assert (= "y" (str.at var8 438)))
(assert (= "4" (str.at var11 375)))
(assert (= "U" (str.at var9 523)))
(assert (= "s" (str.at var53 900)))
(assert (= "m" (str.at var33 110)))
(assert (= "p" (str.at var0 388)))
(assert (= "e" (str.at var7 928)))
(assert (= "." (str.at var36 586)))
(assert (= "d" (str.at var35 810)))
(assert (= "i" (str.at var43 134)))
(assert (= "v" (str.at var32 50)))
(assert (= ")" (str.at var48 993)))
(assert (= ")" (str.at var35 908)))
(assert (= "M" (str.at var41 561)))
(assert (= "Z" (str.at var38 41)))
(assert (= "$" (str.at var2 561)))
(assert (= "p" (str.at var14 624)))
(assert (= "9" (str.at var34 638)))
(assert (= "X" (str.at var50 430)))
(assert (= "N" (str.at var23 786)))
(assert (= "}" (str.at var49 758)))
(assert (= "}" (str.at var34 212)))
(assert (= "=" (str.at var24 470)))
(assert (= "4" (str.at var40 190)))
(assert (= "g" (str.at var38 734)))
(assert (= "B" (str.at var55 519)))
(assert (= "k" (str.at var46 54)))
(assert (= "#" (str.at var49 877)))
(assert (= "~" (str.at var35 236)))
(assert (= "W" (str.at var44 551)))
(assert (= "&" (str.at var46 869)))
(assert (= "I" (str.at var16 626)))
(assert (= "n" (str.at var56 582)))
(assert (= "a" (str.at var48 825)))
(assert (= "S" (str.at var17 621)))
(assert (= "l" (str.at var20 953)))
(assert (= "d" (str.at var29 309)))
(assert (= "6" (str.at var7 486)))
(assert (= "z" (str.at var6 815)))
(assert (= "2" (str.at var2 878)))
(assert (= "[" (str.at var47 329)))
(assert (= "R" (str.at var15 18)))
(assert (= "," (str.at var9 318)))
(assert (= "Z" (str.at var8 601)))
(assert (= "%" (str.at var48 706)))
(assert (= "#" (str.at var41 542)))
(assert (= "5" (str.at var28 765)))
(assert (= "m" (str.at var48 248)))
(assert (= "c" (str.at var25 923)))
(assert (= "V" (str.at var7 333)))
(assert (= "O" (str.at var33 610)))
(assert (= "C" (str.at var46 490)))
(assert (= "4" (str.at var56 994)))
(assert (= "q" (str.at var10 582)))
(assert (= "E" (str.at var25 734)))
(assert (= "}" (str.at var31 988)))
(assert (= "c" (str.at var41 17)))
(assert (= "W" (str.at var42 771)))
(assert (= "?" (str.at var39 761)))
(assert (= "Y" (str.at var19 83)))
(assert (= "." (str.at var31 912)))
(assert (= "{" (str.at var3 269)))
(assert (= "S" (str.at var27 900)))
(assert (= "V" (str.at var10 990)))
(assert (= "V" (str.at var47 473)))
(assert (= "V" (str.at var46 387)))
(assert (= "x" (str.at var15 565)))
(assert (= "M" (str.at var9 241)))
(assert (= "x" (str.at var41 923)))
(assert (= "Z" (str.at var39 327)))
(assert (= "s" (str.at var56 254)))
(assert (= "!" (str.at var25 814)))
(assert (= "{" (str.at var40 47)))
(assert (= ":" (str.at var23 550)))
(assert (= "T" (str.at var9 157)))
(assert (= "#" (str.at var6 992)))
(assert (= "R" (str.at var36 432)))
(assert (= "u" (str.at var24 456)))
(assert (= "5" (str.at var37 227)))
(assert (= "{" (str.at var55 612)))
(assert (= "p" (str.at var53 376)))
(assert (= "d" (str.at var3 813)))
(assert (= "]" (str.at var30 397)))
(assert (= "V" (str.at var14 298)))
(assert (= "-" (str.at var15 11)))
(assert (= "I" (str.at var53 136)))
(assert (= "&" (str.at var2 452)))
(assert (= "o" (str.at var41 932)))
(assert (= "J" (str.at var28 477)))
(assert (= "v" (str.at var51 507)))
(assert (= "-" (str.at var36 957)))
(assert (= "s" (str.at var14 521)))
(assert (= "w" (str.at var41 353)))
(assert (= "U" (str.at var11 505)))
(assert (= "-" (str.at var48 502)))
(assert (= "-" (str.at var49 351)))
(assert (= "|" (str.at var12 714)))
(assert (= "8" (str.at var36 5)))
(assert (= "x" (str.at var52 59)))
(assert (= "R" (str.at var37 269)))
(assert (= "[" (str.at var60 683)))
(assert (= "B" (str.at var18 693)))
(assert (= "'" (str.at var6 806)))
(assert (= "p" (str.at var20 552)))
(assert (= "8" (str.at var3 468)))
(assert (= "&" (str.at var29 913)))
(assert (= ";" (str.at var17 455)))
(assert (= "K" (str.at var27 337)))
(assert (= "0" (str.at var59 367)))
(assert (= "{" (str.at var42 395)))
(assert (= "D" (str.at var39 771)))
(assert (= "x" (str.at var26 914)))
(assert (= "C" (str.at var43 361)))
(assert (= "h" (str.at var8 681)))
(assert (= "3" (str.at var55 356)))
(assert (= "." (str.at var12 875)))
(assert (= "b" (str.at var1 187)))
(assert (= "@" (str.at var55 100)))
(assert (= "u" (str.at var25 66)))
(assert (= ")" (str.at var15 530)))
(assert (= "L" (str.at var14 706)))
(assert (= "}" (str.at var25 780)))
(assert (= "G" (str.at var17 845)))
(assert (= "P" (str.at var38 537)))
(assert (= "O" (str.at var25 65)))
(assert (= "e" (str.at var19 104)))
(assert (= "&" (str.at var39 154)))
(assert (= "S" (str.at var31 219)))
(assert (= "S" (str.at var24 990)))
(assert (= "A" (str.at var14 16)))
(assert (= "/" (str.at var56 423)))
(assert (= "$" (str.at var28 384)))
(assert (= "E" (str.at var57 942)))
(assert (= "P" (str.at var30 866)))
(assert (= "Z" (str.at var60 639)))
(assert (= "." (str.at var4 867)))
(assert (= "N" (str.at var8 437)))
(assert (= "F" (str.at var59 890)))
(assert (= "$" (str.at var19 887)))
(assert (= "o" (str.at var49 191)))
(assert (= "$" (str.at var23 798)))
(assert (= "4" (str.at var13 339)))
(assert (= "=" (str.at var10 358)))
(assert (= "j" (str.at var10 102)))
(assert (= ")" (str.at var32 989)))
(assert (= "k" (str.at var19 120)))
(assert (= "8" (str.at var50 450)))
(assert (= "B" (str.at var6 282)))
(assert (= "7" (str.at var23 694)))
(assert (= "Y" (str.at var53 448)))
(assert (= "{" (str.at var37 772)))
(assert (= "P" (str.at var1 518)))
(assert (= "y" (str.at var13 410)))
(assert (= "6" (str.at var22 456)))
(assert (= "g" (str.at var23 91)))
(assert (= "M" (str.at var50 626)))
(assert (= "1" (str.at var27 792)))
(assert (= "q" (str.at var56 292)))
(assert (= "(" (str.at var54 199)))
(assert (= "d" (str.at var5 838)))
(assert (= "s" (str.at var29 448)))
(assert (= "g" (str.at var49 997)))
(assert (= "k" (str.at var2 592)))
(assert (= "&" (str.at var25 11)))
(assert (= "7" (str.at var22 224)))
(assert (= ";" (str.at var37 542)))
(assert (= "E" (str.at var58 367)))
(assert (= "r" (str.at var33 374)))
(assert (= "|" (str.at var60 478)))
(assert (= "X" (str.at var7 346)))
(assert (= "~" (str.at var52 6)))
(assert (= "8" (str.at var59 905)))
(assert (= "\\" (str.at var40 120)))
(assert (= "}" (str.at var19 61)))
(assert (= "9" (str.at var47 973)))
(assert (= "\\" (str.at var0 852)))
(assert (= "S" (str.at var10 479)))
(assert (= "a" (str.at var14 756)))
(assert (= "@" (str.at var18 945)))
(assert (= "Z" (str.at var10 271)))
(assert (= "i" (str.at var20 106)))
(assert (= "=" (str.at var36 364)))
(assert (= "!" (str.at var49 296)))
(assert (= "W" (str.at var22 682)))
(assert (= "v" (str.at var9 628)))
(assert (= "T" (str.at var37 156)))
(assert (= "s" (str.at var51 204)))
(assert (= "8" (str.at var40 720)))
(assert (= "E" (str.at var51 184)))
(assert (= "G" (str.at var59 584)))
(assert (= "B" (str.at var49 735)))
(assert (= "l" (str.at var18 294)))
(assert (= "L" (str.at var15 740)))
(assert (= "3" (str.at var38 525)))
(assert (= "D" (str.at var49 361)))
(assert (= "b" (str.at var26 529)))
(assert (= "N" (str.at var21 233)))
(assert (= "P" (str.at var28 614)))
(assert (= "1" (str.at var13 319)))
(assert (= "U" (str.at var4 738)))
(assert (= "w" (str.at var54 533)))
(assert (= "d" (str.at var31 199)))
(assert (= ")" (str.at var29 249)))
(assert (= "0" (str.at var32 305)))
(assert (= "W" (str.at var52 300)))
(assert (= "p" (str.at var17 693)))
(assert (= "j" (str.at var25 665)))
(assert (= "1" (str.at var52 533)))
(assert (= "r" (str.at var21 549)))
(assert (= "F" (str.at var51 704)))
(assert (= "?" (str.at var33 694)))
(assert (= "x" (str.at var39 665)))
(assert (= "B" (str.at var11 116)))
(assert (= "<" (str.at var3 449)))
(assert (= "+" (str.at var42 508)))
(assert (= "X" (str.at var35 657)))
(assert (= "Q" (str.at var43 360)))
(assert (= "$" (str.at var12 6)))
(assert (= "T" (str.at var2 668)))
(assert (= "}" (str.at var54 996)))
(assert (= "H" (str.at var24 408)))
(assert (= "N" (str.at var50 428)))
(assert (= "B" (str.at var25 227)))
(assert (= "e" (str.at var31 545)))
(assert (= "C" (str.at var32 884)))
(assert (= "V" (str.at var6 72)))
(assert (= "5" (str.at var52 103)))
(assert (= "J" (str.at var32 791)))
(assert (= "s" (str.at var31 379)))
(assert (= ";" (str.at var58 41)))
(assert (= "H" (str.at var52 87)))
(assert (= "&" (str.at var59 1000)))
(assert (= "_" (str.at var40 966)))
(assert (= "v" (str.at var33 380)))
(assert (= "j" (str.at var55 648)))
(assert (= "9" (str.at var36 438)))
(assert (= "~" (str.at var47 804)))
(assert (= "q" (str.at var51 130)))
(assert (= "{" (str.at var46 253)))
(assert (= "b" (str.at var53 881)))
(assert (= "g" (str.at var60 63)))
(assert (= "2" (str.at var27 350)))
(assert (= "=" (str.at var6 161)))
(assert (= "[" (str.at var18 894)))
(assert (= "L" (str.at var37 622)))
(assert (= "2" (str.at var42 40)))
(assert (= "N" (str.at var18 892)))
(assert (= "h" (str.at var39 235)))
(assert (= "z" (str.at var53 661)))
(assert (= "3" (str.at var10 359)))
(assert (= "~" (str.at var20 593)))
(assert (= "&" (str.at var17 619)))
(assert (= "r" (str.at var60 624)))
(assert (= "`" (str.at var3 776)))
(assert (= "s" (str.at var57 174)))
(assert (= "z" (str.at var4 77)))
(assert (= "'" (str.at var42 533)))
(assert (= "y" (str.at var53 302)))
(assert (= "`" (str.at var11 888)))
(assert (= ":" (str.at var21 203)))
(assert (= "." (str.at var19 235)))
(assert (= "G" (str.at var8 352)))
(assert (= "v" (str.at var46 371)))
(assert (= "s" (str.at var41 914)))
(assert (= "~" (str.at var33 736)))
(assert (= "m" (str.at var54 51)))
(assert (= ";" (str.at var39 749)))
(assert (= "O" (str.at var43 487)))
(assert (= "[" (str.at var7 805)))
(assert (= "a" (str.at var23 153)))
(assert (= "[" (str.at var19 287)))
(assert (= "3" (str.at var32 310)))
(assert (= "X" (str.at var59 705)))
(assert (= "l" (str.at var6 689)))
(assert (= "{" (str.at var9 951)))
(assert (= "2" (str.at var45 228)))
(assert (= "c" (str.at var16 449)))
(assert (= ";" (str.at var59 798)))
(assert (= "y" (str.at var34 139)))
(assert (= "L" (str.at var60 55)))
(assert (= "X" (str.at var47 941)))
(assert (= "]" (str.at var30 448)))
(assert (= "[" (str.at var6 954)))
(assert (= "K" (str.at var5 150)))
(assert (= "H" (str.at var12 718)))
(assert (= "5" (str.at var43 183)))
(assert (= "(" (str.at var54 34)))
(assert (= "g" (str.at var3 430)))
(assert (= "`" (str.at var50 418)))
(assert (= "_" (str.at var8 42)))
(assert (= ":" (str.at var12 950)))
(assert (= "b" (str.at var3 477)))
(assert (= "N" (str.at var49 341)))
(assert (= "W" (str.at var11 188)))
(assert (= "?" (str.at var59 672)))
(assert (= ";" (str.at var0 631)))
(assert (= "m" (str.at var49 273)))
(assert (= "7" (str.at var4 584)))
(assert (= "V" (str.at var52 4)))
(assert (= "'" (str.at var54 423)))
(assert (= "^" (str.at var54 556)))
(assert (= "D" (str.at var54 597)))
(assert (= ":" (str.at var1 544)))
(assert (= "R" (str.at var47 182)))
(assert (= "J" (str.at var44 197)))
(assert (= "W" (str.at var52 214)))
(assert (= "<" (str.at var40 515)))
(assert (= "x" (str.at var46 715)))
(assert (= "4" (str.at var47 624)))
(assert (= "u" (str.at var22 986)))
(assert (= "|" (str.at var58 408)))
(assert (= "f" (str.at var42 688)))
(assert (= "9" (str.at var14 261)))
(assert (= "}" (str.at var47 584)))
(assert (= "R" (str.at var43 927)))
(assert (= "#" (str.at var33 315)))
(assert (= "=" (str.at var30 485)))
(assert (= "Y" (str.at var27 452)))
(assert (= "9" (str.at var60 173)))
(assert (= "u" (str.at var27 287)))
(assert (= "t" (str.at var54 248)))
(assert (= "F" (str.at var26 617)))
(assert (= "r" (str.at var27 512)))
(assert (= "V" (str.at var50 751)))
(assert (= "#" (str.at var38 881)))
(assert (= "O" (str.at var4 47)))
(assert (= "s" (str.at var58 156)))
(assert (= "]" (str.at var3 712)))
(assert (= "[" (str.at var6 70)))
(assert (= "D" (str.at var20 252)))
(assert (= "t" (str.at var55 349)))
(assert (= "]" (str.at var44 363)))
(assert (= "N" (str.at var52 574)))
(assert (= "d" (str.at var52 684)))
(assert (= "d" (str.at var45 673)))
(assert (= "." (str.at var29 153)))
(assert (= "R" (str.at var30 379)))
(assert (= "B" (str.at var36 259)))
(assert (= "[" (str.at var11 954)))
(assert (= "u" (str.at var52 122)))
(assert (= "S" (str.at var39 760)))
(assert (= "l" (str.at var34 754)))
(assert (= "B" (str.at var17 741)))
(assert (= "!" (str.at var55 944)))
(assert (= "*" (str.at var30 91)))
(assert (= "v" (str.at var58 258)))
(assert (= "a" (str.at var12 394)))
(assert (= "%" (str.at var24 532)))
(assert (= "@" (str.at var0 106)))
(assert (= "f" (str.at var16 453)))
(assert (= "V" (str.at var3 922)))
(assert (= "p" (str.at var34 582)))
(assert (= "S" (str.at var57 614)))
(assert (= "O" (str.at var50 608)))
(assert (= "?" (str.at var31 962)))
(assert (= "/" (str.at var16 279)))
(assert (= "-" (str.at var38 600)))
(assert (= "F" (str.at var25 216)))
(assert (= "S" (str.at var49 860)))
(assert (= "^" (str.at var33 259)))
(assert (= "2" (str.at var35 356)))
(assert (= "S" (str.at var29 675)))
(assert (= "b" (str.at var17 833)))
(assert (= "U" (str.at var56 241)))
(assert (= "v" (str.at var30 268)))
(assert (= "0" (str.at var11 673)))
(assert (= "0" (str.at var30 40)))
(assert (= "i" (str.at var18 234)))
(assert (= "_" (str.at var52 523)))
(assert (= "h" (str.at var38 328)))
(assert (= "=" (str.at var0 512)))
(assert (= ":" (str.at var35 706)))
(assert (= "F" (str.at var27 953)))
(assert (= "l" (str.at var50 448)))
(assert (= "$" (str.at var39 260)))
(assert (= "k" (str.at var15 274)))
(assert (= "u" (str.at var42 695)))
(assert (= "w" (str.at var43 870)))
(assert (= "p" (str.at var36 467)))
(assert (= "\\" (str.at var9 957)))
(assert (= "{" (str.at var43 584)))
(assert (= "7" (str.at var12 129)))
(assert (= "=" (str.at var17 985)))
(assert (= """" (str.at var11 647)))
(assert (= "F" (str.at var33 21)))
(assert (= "4" (str.at var6 785)))
(assert (= "s" (str.at var28 173)))
(assert (= "\\" (str.at var24 947)))
(assert (= "w" (str.at var52 844)))
(assert (= "+" (str.at var48 651)))
(assert (= "q" (str.at var45 960)))
(assert (= "$" (str.at var33 287)))
(assert (= "=" (str.at var41 819)))
(assert (= "T" (str.at var30 209)))
(assert (= "9" (str.at var37 155)))
(assert (= "b" (str.at var20 433)))
(assert (= "2" (str.at var41 89)))
(assert (= """" (str.at var57 682)))
(assert (= "<" (str.at var6 90)))
(assert (= "A" (str.at var9 928)))
(assert (= "c" (str.at var32 699)))
(assert (= "S" (str.at var9 495)))
(assert (= "y" (str.at var20 159)))
(assert (= "\\" (str.at var11 720)))
(assert (= ")" (str.at var2 464)))
(assert (= "9" (str.at var36 599)))
(assert (= "X" (str.at var51 750)))
(assert (= "O" (str.at var42 590)))
(assert (= "y" (str.at var45 829)))
(assert (= "{" (str.at var0 70)))
(assert (= "%" (str.at var28 374)))
(assert (= "b" (str.at var47 514)))
(assert (= "'" (str.at var7 893)))
(assert (= "u" (str.at var12 618)))
(assert (= "," (str.at var42 845)))
(assert (= "." (str.at var28 949)))
(assert (= "n" (str.at var17 730)))
(assert (= "S" (str.at var1 260)))
(assert (= "." (str.at var43 477)))
(assert (= "1" (str.at var18 271)))
(assert (= "g" (str.at var44 102)))
(assert (= "#" (str.at var4 180)))
(assert (= "v" (str.at var51 120)))
(assert (= "H" (str.at var26 468)))
(assert (= "t" (str.at var22 665)))
(assert (= "M" (str.at var24 197)))
(assert (= "#" (str.at var53 555)))
(assert (= "y" (str.at var50 900)))
(assert (= "[" (str.at var24 164)))
(assert (= "#" (str.at var2 234)))
(assert (= "A" (str.at var19 18)))
(assert (= "\\" (str.at var41 272)))
(assert (= "l" (str.at var13 10)))
(assert (= "E" (str.at var18 643)))
(assert (= "9" (str.at var10 260)))
(assert (= "U" (str.at var56 931)))
(assert (= "z" (str.at var5 173)))
(assert (= "3" (str.at var56 309)))
(assert (= "y" (str.at var19 529)))
(assert (= "Z" (str.at var43 561)))
(assert (= "`" (str.at var52 860)))
(assert (= "-" (str.at var39 882)))
(assert (= "t" (str.at var45 812)))
(assert (= ")" (str.at var31 981)))
(assert (= "y" (str.at var45 741)))
(assert (= "g" (str.at var2 648)))
(assert (= "'" (str.at var44 867)))
(assert (= "?" (str.at var57 165)))
(assert (= "e" (str.at var41 449)))
(assert (= "H" (str.at var10 54)))
(assert (= "Q" (str.at var27 710)))
(assert (= "=" (str.at var16 141)))
(assert (= "v" (str.at var4 196)))
(assert (= "}" (str.at var16 560)))
(assert (= "/" (str.at var33 533)))
(assert (= "=" (str.at var29 806)))
(assert (= "l" (str.at var6 805)))
(assert (= "^" (str.at var28 683)))
(assert (= "b" (str.at var3 507)))
(assert (= "Z" (str.at var4 953)))
(assert (= "T" (str.at var29 170)))
(assert (= "-" (str.at var45 775)))
(assert (= "c" (str.at var0 828)))
(assert (= ";" (str.at var35 395)))
(assert (= "m" (str.at var53 317)))
(assert (= "M" (str.at var39 162)))
(assert (= "'" (str.at var44 59)))
(assert (= "^" (str.at var27 208)))
(assert (= "/" (str.at var59 205)))
(assert (= "x" (str.at var6 567)))
(assert (= "D" (str.at var48 384)))
(assert (= "Y" (str.at var57 279)))
(assert (= "p" (str.at var52 911)))
(assert (= "~" (str.at var2 935)))
(assert (= "F" (str.at var54 909)))
(assert (= "\\" (str.at var43 281)))
(assert (= "0" (str.at var60 931)))
(assert (= "/" (str.at var31 948)))
(assert (= "," (str.at var55 500)))
(assert (= "P" (str.at var38 457)))
(assert (= "m" (str.at var35 902)))
(assert (= "Q" (str.at var1 52)))
(assert (= "D" (str.at var3 440)))
(assert (= "k" (str.at var0 981)))
(assert (= ")" (str.at var7 391)))
(assert (= "R" (str.at var50 685)))
(assert (= "q" (str.at var57 55)))
(assert (= "7" (str.at var48 369)))
(assert (= "L" (str.at var32 871)))
(assert (= "f" (str.at var19 45)))
(assert (= "@" (str.at var46 434)))
(assert (= "5" (str.at var0 450)))
(assert (= "j" (str.at var49 508)))
(assert (= "{" (str.at var22 170)))
(assert (= "e" (str.at var15 15)))
(assert (= "M" (str.at var60 229)))
(assert (= "|" (str.at var10 301)))
(assert (= "k" (str.at var19 256)))
(assert (= "'" (str.at var32 221)))
(assert (= "f" (str.at var15 901)))
(assert (= "-" (str.at var10 513)))
(assert (= "W" (str.at var59 952)))
(assert (= "B" (str.at var3 723)))
(assert (= "`" (str.at var42 514)))
(assert (= "4" (str.at var11 409)))
(assert (= "U" (str.at var0 268)))
(assert (= "Z" (str.at var43 511)))
(assert (= "9" (str.at var10 467)))
(assert (= "i" (str.at var43 808)))
(assert (= "5" (str.at var11 617)))
(assert (= "|" (str.at var27 543)))
(assert (= "U" (str.at var18 392)))
(assert (= "*" (str.at var59 997)))
(assert (= "Y" (str.at var4 105)))
(assert (= "^" (str.at var37 28)))
(assert (= "/" (str.at var11 396)))
(assert (= "s" (str.at var26 980)))
(assert (= "^" (str.at var56 146)))
(assert (= "9" (str.at var38 412)))
(assert (= "D" (str.at var35 61)))
(assert (= "2" (str.at var23 614)))
(assert (= "3" (str.at var34 86)))
(assert (= "}" (str.at var55 0)))
(assert (= "3" (str.at var42 506)))
(assert (= "p" (str.at var30 563)))
(assert (= "g" (str.at var44 350)))
(assert (= "t" (str.at var15 279)))
(assert (= "%" (str.at var25 871)))
(assert (= "|" (str.at var30 611)))
(assert (= "8" (str.at var60 579)))
(assert (= "H" (str.at var56 458)))
(assert (= "D" (str.at var59 610)))
(assert (= "7" (str.at var38 331)))
(assert (= "O" (str.at var17 99)))
(assert (= "F" (str.at var56 317)))
(assert (= "]" (str.at var47 321)))
(assert (= """" (str.at var60 61)))
(assert (= "/" (str.at var54 206)))
(assert (= "+" (str.at var50 549)))
(assert (= "R" (str.at var60 209)))
(assert (= ")" (str.at var9 225)))
(assert (= ")" (str.at var21 550)))
(assert (= "j" (str.at var2 722)))
(assert (= "<" (str.at var50 333)))
(assert (= "B" (str.at var37 832)))
(assert (= "a" (str.at var5 575)))
(assert (= "]" (str.at var26 119)))
(assert (= "-" (str.at var6 681)))
(assert (= "W" (str.at var51 642)))
(assert (= "}" (str.at var14 449)))
(assert (= "0" (str.at var16 961)))
(assert (= "\\" (str.at var49 29)))
(assert (= "%" (str.at var8 984)))
(assert (= "." (str.at var6 423)))
(assert (= "W" (str.at var24 143)))
(assert (= "!" (str.at var33 931)))
(assert (= "r" (str.at var18 898)))
(assert (= ")" (str.at var24 205)))
(assert (= "p" (str.at var35 520)))
(assert (= "8" (str.at var20 982)))
(assert (= "Q" (str.at var2 447)))
(assert (= "%" (str.at var28 166)))
(assert (= "G" (str.at var26 335)))
(assert (= "2" (str.at var8 794)))
(assert (= "L" (str.at var46 417)))
(assert (= "*" (str.at var45 405)))
(assert (= "+" (str.at var26 84)))
(assert (= "[" (str.at var55 818)))
(assert (= "@" (str.at var1 472)))
(assert (= "q" (str.at var23 222)))
(assert (= "}" (str.at var9 573)))
(assert (= "%" (str.at var12 797)))
(assert (= "V" (str.at var24 22)))
(assert (= "s" (str.at var0 314)))
(assert (= "W" (str.at var3 908)))
(assert (= "\\" (str.at var11 990)))
(assert (= "]" (str.at var32 891)))
(assert (= "`" (str.at var8 74)))
(assert (= "@" (str.at var51 940)))
(assert (= "m" (str.at var38 211)))
(assert (= "T" (str.at var14 281)))
(assert (= "6" (str.at var48 1)))
(assert (= "j" (str.at var54 382)))
(assert (= "x" (str.at var60 193)))
(assert (= "4" (str.at var29 398)))
(assert (= "t" (str.at var57 892)))
(assert (= "I" (str.at var33 628)))
(assert (= "=" (str.at var51 55)))
(assert (= "/" (str.at var3 178)))
(assert (= "1" (str.at var5 652)))
(assert (= "?" (str.at var46 105)))
(assert (= "<" (str.at var34 722)))
(assert (= "]" (str.at var60 953)))
(assert (= "F" (str.at var43 845)))
(assert (= "t" (str.at var30 976)))
(assert (= "j" (str.at var26 106)))
(assert (= "u" (str.at var29 945)))
(assert (= "&" (str.at var59 559)))
(assert (= "W" (str.at var27 734)))
(assert (= "b" (str.at var28 451)))
(assert (= "o" (str.at var21 452)))
(assert (= "N" (str.at var30 57)))
(assert (= "4" (str.at var46 551)))
(assert (= "6" (str.at var36 104)))
(assert (= "M" (str.at var8 48)))
(assert (= "F" (str.at var19 754)))
(assert (= "!" (str.at var38 180)))
(assert (= "4" (str.at var8 313)))
(assert (= "y" (str.at var40 526)))
(assert (= "9" (str.at var43 733)))
(assert (= "C" (str.at var1 219)))
(assert (= "9" (str.at var43 794)))
(assert (= "X" (str.at var52 601)))
(assert (= "/" (str.at var51 418)))
(assert (= "3" (str.at var50 47)))
(assert (= "`" (str.at var57 25)))
(assert (= "S" (str.at var18 371)))
(assert (= "1" (str.at var51 765)))
(assert (= "a" (str.at var21 622)))
(assert (= "a" (str.at var0 98)))
(assert (= "p" (str.at var34 84)))
(assert (= "3" (str.at var33 896)))
(assert (= "F" (str.at var15 840)))
(assert (= "n" (str.at var46 534)))
(assert (= "M" (str.at var28 547)))
(assert (= "=" (str.at var35 325)))
(assert (= "R" (str.at var0 326)))
(assert (= "h" (str.at var0 821)))
(assert (= "|" (str.at var37 626)))
(assert (= "^" (str.at var60 661)))
(assert (= "*" (str.at var39 744)))
(assert (= "s" (str.at var21 34)))
(assert (= "<" (str.at var27 881)))
(assert (= "u" (str.at var47 869)))
(assert (= "{" (str.at var30 71)))
(assert (= "#" (str.at var55 372)))
(assert (= "?" (str.at var57 832)))
(assert (= "y" (str.at var11 922)))
(assert (= "v" (str.at var6 672)))
(assert (= ">" (str.at var11 350)))
(assert (= "W" (str.at var22 194)))
(assert (= "0" (str.at var35 58)))
(assert (= "~" (str.at var36 453)))
(assert (= "l" (str.at var36 252)))
(assert (= "u" (str.at var3 978)))
(assert (= "9" (str.at var30 430)))
(assert (= "q" (str.at var40 88)))
(assert (= "Z" (str.at var8 493)))
(assert (= "T" (str.at var60 830)))
(assert (= "$" (str.at var13 907)))
(assert (= "W" (str.at var46 624)))
(assert (= "f" (str.at var31 516)))
(assert (= "}" (str.at var45 51)))
(assert (= "l" (str.at var38 498)))
(assert (= ";" (str.at var23 62)))
(assert (= "t" (str.at var0 393)))
(assert (= "!" (str.at var43 707)))
(assert (= "T" (str.at var40 766)))
(assert (= "1" (str.at var0 221)))
(assert (= "[" (str.at var15 234)))
(assert (= "I" (str.at var31 612)))
(assert (= "G" (str.at var26 302)))
(assert (= "^" (str.at var59 118)))
(assert (= ":" (str.at var59 332)))
(assert (= "B" (str.at var42 777)))
(assert (= "Q" (str.at var36 451)))
(assert (= "." (str.at var40 239)))
(assert (= "*" (str.at var46 419)))
(assert (= "v" (str.at var55 761)))
(assert (= "S" (str.at var52 853)))
(assert (= "R" (str.at var25 751)))
(assert (= "a" (str.at var2 231)))
(assert (= "h" (str.at var56 736)))
(check-sat)